#Simulación de la fundición del LiF y cálculo del coeficiente de difusión tal y como se indica en el paper de Madden. Coeficientes del paper de Ribeiro. 


####################
# PROBLEM SETUP
####################

units          electron 
dimension      3
boundary       p p p
timestep       1.0
atom_style     charge
neigh_modify   delay 0 every 1 
kspace_style   ewald 0.0001

##################
# VARIABLES
#################

# Defino las variables convert y dt. La primera de ellas para obtener los resultados de coeficiente de difusión en m²/s; la segunda es el timestep. 

variable    convert equal 2.8*1.0e-6
variable    dt equal 1.0

##########################
# GEOMETRÍA DEL SISTEMA
##########################

# Iones Li+ (1)
lattice         fcc 15.25 origin 0 0 0 # La lattice constant del LiF es igual a  403.51 pm=7.63 bohr =>El doble será la distancia entre Litios. 
region          box block 0 4 0 4 0 4
create_box      2 box # Crea la caja de simulación. El tamaño es el especificado en los argumentos del comando region.
create_atoms    1 box
# Iones F- (2)
lattice         fcc 15.25 origin 0.5 0 0
create_atoms    2 box
# Otros datos (Li:1, F:2)
mass            1 6.9417
mass            2 18.9984
set             type 1 charge 1
set             type 2 charge -1
group           1 id 1
group           2 id 2

###########################################
# POTENCIAL DE INTERACCIÓN Y COEFICIENTES
##########################################

pair_style      born/coul/long 15 #el cut-off se ha estimado teniendo en cuenta la curva de la función de distribución radial para LiF. 

#Coeficientes. 

#El orden de los coeficientes es: A rho sigma C D
pair_coeff      1 1 3.6358 0.56598 0  0.0764091 -0.1122
pair_coeff      2 2 15.4539 0.56598 0  15.17715 0
pair_coeff      1 2 8.4162 0.56598 0  0.8373600 0

###########################
# VELOCIDAD INICIAL
##########################
velocity    all create 800 97287 #The create style generates an ensemble of velocities using a random number generator with the specified seed as the specified temperature.


###############################
#EQUILIBRADO NPT (25 ps)
###############################
fix     npt all npt temp 800 1123 10 iso 0 0 100 
run     25000
unfix   npt
#############################
# EQUILIBRADO NVT (25 ps)
#############################
fix     nvt all nvt temp 1123 1123 10
run     25000
unfix   nvt

write_restart   restart.equilibration.dif
reset_timestep  0


################################################################
# Cálculo de las posiciones y energía cinética y potencial de cada partícula. 
###############################################################

fix             nve all nve  

#compute         msd 1 msd com no
#variable        D equal c_msd[4]/6/(step*${dt}+1.0e-6)*${convert}  
#fix             1 1 vector 10 c_msd[4]
#variable        fitslope equal slope(f_1)/6/(10*${dt})*${convert} 
#variable        Time equal step*${dt}*1.0e-6 #tiempo en nanosegundos (1fs=1.0e-6 ns)
compute         pe all pe/atom
compute         ke all ke/atom
dump            dumpy all custom 100 dump.production id type x y z c_ke c_pe 
run             2000000
